c ---- [ banner ] ------------------------------------------------------------
c
c Kissat SAT Solver
c 
c Copyright (c) 2021-2024 Armin Biere University of Freiburg
c Copyright (c) 2019-2021 Armin Biere Johannes Kepler University Linz
c 
c Version 4.0.1 43f02cf3e992cb44653b35e5cb26f93281552ae0
c gcc (Ubuntu 13.2.0-23ubuntu4) 13.2.0 -W -Wall -O3 -DNDEBUG
c Thu Sep 12 12:27:46 CEST 2024 Linux abryzen9 6.8.0-41-generic x86_64
c
c ---- [ parsing ] -----------------------------------------------------------
c
c opened and reading DIMACS file:
c
c   /data/artifact/AMulet2.0_artifact/exp4/cnf_resyn3_64/64_64_U_SP_DT_LF_GenMul_resyn3.cnf
c
c parsed 'p cnf 25895 115635' header
c closing input after reading 2290976 bytes (2 MB)
c finished parsing after 0.03 seconds
c
c ---- [ options ] -----------------------------------------------------------
c
c --stable=0                       (different from default '1')
c
c ---- [ solving ] -----------------------------------------------------------
c
c  seconds switched rate     size/glue tier1  binary           remaining
c         MB reductions conflicts size  tier2     irredundant
c          level restarts redundant glue  trail           variables
c
c *  0.03  9 0 0 0  0 0   0   0 0.0 0 0 0 0 0% 10721 104912 25892 100%
c (  0.05 11 0 0 0  0 0   0   0 0.0 0 0 0 0 0% 10721 104912 25892 100%
c .  0.06 11 0 0 0  0 0   0   0 0.0 0 0 0 0 0% 10717 104912 25892 100%
c f  0.31 16 0 0 0  0 0   0   0 0.0 0 0 0 0 0% 15680 96998 28700 111%
c e  0.49 24 0 0 0  0 0   0   0 0.0 0 0 0 0 0% 9636 105478 19518 75%
c )  0.49 24 0 0 0  0 0   0   0 0.0 0 0 0 0 0% 9636 105478 19518 75%
c {  0.52 24 0 0 0  0 0   0   0 0.0 0 0 2 6 0% 9636 105478 19518 75%
c -  0.79 26 146 0 1 249 30 1001 775 3.1 17 5 3 10 22% 9684 105478 19518 75%
c -  1.11 26 180 0 2 399 37 2002 1380 4.0 26 7 3 10 26% 9735 105478 19518 75%
c d  1.17 26 292 0 2 408 33 2502 1801 3.9 24 6 3 10 25% 9722 105478 19507 75%
c u  1.19 26 292 0 2 408 33 2502 1501 3.9 24 6 3 10 25% 9734 105478 19507 75%
c v  1.22 26 292 0 2 408 33 2502 1274 3.9 24 6 3 10 25% 9734 105478 19507 75%
c w  1.24 26 292 0 2 408 33 2502 1274 3.9 24 6 3 10 25% 9734 105478 19507 75%
c x  1.26 26 292 0 2 408 33 2502 1274 3.9 24 6 3 10 25% 9734 105313 19507 75%
c d  1.27 26 292 0 2 408 33 2502 1274 3.9 24 6 3 10 25% 9732 105313 19506 75%
c f  1.32 26 292 0 2 408 33 2502 1274 3.9 24 6 3 10 25% 10364 103858 20132 78%
c c  1.42 23 292 0 2 408 33 2502 1274 3.9 24 6 3 10 25% 10370 103846 20130 78%
c d  1.43 23 292 0 2 408 33 2502 1274 3.9 24 6 3 10 25% 10366 103846 20130 78%
c u  1.45 23 292 0 2 408 33 2502 1226 3.9 24 6 3 10 25% 10367 103846 20130 78%
c v  1.47 23 292 0 2 408 33 2502 1190 3.9 24 6 3 10 25% 10367 103846 20130 78%
c
c  seconds   switched   rate       size/glue tier1     binary           remaining
c         MB  reductions conflicts       size  tier2       irredundant
c           level restarts    redundant    glue    trail           variables
c
c w  1.49 23 292 0 2 408 33 2502 1188 3.9 24 6 3 10 25% 10367 103846 20130 78%
c x  1.52 23 292 0 2 408 33 2502 1188 3.9 24 6 3 10 25% 10367 103843 20130 78%
c =  1.60 23 292 0 2 408 33 2502 1188 3.9 24 6 3 10 25% 10375 103843 20126 78%
c d  1.60 23 292 0 2 408 33 2502 1188 3.9 24 6 3 10 25% 10363 103843 20126 78%
c f  1.64 23 292 0 2 408 33 2502 1188 3.9 24 6 3 10 25% 10419 103740 20162 78%
c -  1.94 28 258 0 3 530 33 3418 1637 3.9 24 6 3 9 26% 10467 103740 20162 78%
c -  2.50 28 301 0 4 790 39 5151 2806 3.9 26 7 3 11 26% 10508 103740 20162 78%
c -  3.05 28 301 0 5 1019 37 7151 3936 3.7 27 7 3 10 26% 10571 103740 20162 78%
c d  3.17 28 320 0 5 1059 37 7706 4393 3.8 26 7 3 10 26% 10480 103740 20111 78%
c u  3.21 28 320 0 5 1059 37 7706 3758 3.8 26 7 3 10 26% 10500 103740 20111 78%
c v  3.26 28 320 0 5 1059 37 7706 3431 3.8 26 7 3 10 26% 10500 103740 20111 78%
c w  3.32 28 320 0 5 1059 37 7706 3426 3.8 26 7 3 10 26% 10500 103740 20111 78%
c =  3.48 28 320 0 5 1059 37 7706 3426 3.8 26 7 3 10 26% 10900 103738 19911 77%
c d  3.49 28 320 0 5 1059 37 7706 3414 3.8 26 7 3 10 26% 10389 103738 19910 77%
c t  3.50 28 320 0 5 1059 37 7706 3414 3.8 26 7 3 10 26% 10385 103738 19910 77%
c f  3.56 28 320 0 5 1059 37 7706 3414 3.8 26 7 3 10 26% 11266 102402 20352 79%
c u  3.61 28 320 0 5 1059 37 7706 3311 3.8 26 7 3 10 26% 11269 102402 20352 79%
c v  3.64 28 320 0 5 1059 37 7706 3231 3.8 26 7 3 10 26% 11269 102402 20352 79%
c w  3.69 28 320 0 5 1059 37 7706 3227 3.8 26 7 3 10 26% 11269 102402 20352 79%
c x  3.73 28 320 0 5 1059 37 7706 3227 3.8 26 7 3 10 26% 11269 102345 20352 79%
c
c  seconds   switched    rate       size/glue tier1     binary           remaining
c         MB  reductions  conflicts       size  tier2       irredundant
c           level  restarts    redundant    glue    trail           variables
c
c =  3.89 28 320 0 5 1059 37 7706 3227 3.8 26 7 3 10 26% 11893 102345 20040 77%
c d  3.90 28 320 0 5 1059 37 7706 3226 3.8 26 7 3 10 26% 11043 102345 20039 77%
c t  3.92 28 320 0 5 1059 37 7706 3226 3.8 26 7 3 10 26% 10968 102345 20039 77%
c f  3.97 28 320 0 5 1059 37 7706 3226 3.8 26 7 3 10 26% 14275 97379 21698 84%
c -  4.41 28 335 0 6 1171 36 9389 3981 4.0 29 7 2 9 26% 14357 97379 21698 84%
c o  4.63 28 337 0 6 1233 36 10002 4512 4.1 29 7 2 9 27% 14378 97379 21698 84%
c -  5.13 28 308 0 7 1365 34 11839 5381 4.0 28 7 2 8 27% 14413 97379 21698 84%
c s  5.36 28 309 0 7 1416 34 12508 5980 4.2 29 7 2 8 27% 14424 95908 21698 84%
c e  5.48 28 309 0 7 1416 34 12508 5980 4.2 29 7 2 8 27% 13794 96210 21269 82%
c s  5.49 28 309 0 7 1416 34 12508 5980 4.2 29 7 2 8 27% 13798 95901 21269 82%
c e  5.50 28 309 0 7 1416 34 12508 5980 4.2 29 7 2 8 27% 13737 95945 21242 82%
c ^  5.50 28 309 0 7 1416 34 12508 5980 4.2 29 7 2 8 27% 13737 95945 21242 82%
c -  6.17 28 306 0 8 1629 34 14486 6393 4.3 30 7 2 8 28% 13816 95945 21242 82%
c c  6.61 28 329 0 8 1743 34 15785 7568 4.3 30 7 2 8 28% 13880 95778 21199 82%
c d  6.62 28 329 0 8 1743 34 15785 7525 4.3 30 7 2 8 28% 13306 95778 20910 81%
c u  6.67 28 329 0 8 1743 34 15785 6625 4.3 30 7 2 8 28% 13321 95778 20910 81%
c v  6.72 28 329 0 8 1743 34 15785 5739 4.3 30 7 2 8 28% 13323 95778 20910 81%
c w  6.86 28 329 0 8 1743 34 15785 5711 4.3 30 7 2 8 28% 13323 95778 20910 81%
c =  7.10 28 329 0 8 1743 34 15785 5711 4.3 30 7 2 8 28% 13751 95778 20696 80%
c d  7.11 28 329 0 8 1743 34 15785 5671 4.3 30 7 2 8 28% 13220 95778 20695 80%
c
c  seconds   switched    rate        size/glue tier1    binary          remaining
c         MB  reductions   conflicts       size  tier2      irredundant
c           level  restarts     redundant    glue   trail          variables
c
c t  7.13 28 329 0 8 1743 34 15785 5671 4.3 30 7 2 8 28% 13159 95778 20695 80%
c f  7.19 28 329 0 8 1743 34 15785 5671 4.3 30 7 2 8 28% 13184 95719 20708 80%
c u  7.25 28 329 0 8 1743 34 15785 5469 4.3 30 7 2 8 28% 13186 95719 20708 80%
c v  7.28 28 329 0 8 1743 34 15785 5337 4.3 30 7 2 8 28% 13186 95719 20708 80%
c w  7.42 28 329 0 8 1743 34 15785 5315 4.3 30 7 2 8 28% 13186 95719 20708 80%
c =  7.66 28 329 0 8 1743 34 15785 5315 4.3 30 7 2 8 28% 15338 95719 19632 76%
c d  7.67 28 329 0 8 1743 34 15785 5233 4.3 30 7 2 8 28% 12298 95719 19632 76%
c t  7.69 28 329 0 8 1743 34 15785 5233 4.3 30 7 2 8 28% 12297 95719 19632 76%
c -  8.05 28 328 0 9 1834 33 17314 5807 4.2 29 7 2 8 27% 12330 95719 19632 76%
c o  8.86 28 321 0 9 2119 33 20063 8222 4.3 30 7 2 8 28% 12387 95719 19632 76%
c -  9.03 28 319 0 10 2183 33 20314 7550 4.4 31 7 2 8 28% 12387 95719 19632 76%
c -  9.90 28 307 0 11 2461 33 23476 9118 4.3 31 7 2 8 27% 12449 95719 19632 76%
c s 10.41 28 308 0 11 2608 33 25011 10439 4.4 31 7 2 8 28% 12486 92035 19632 76%
c e 10.54 28 308 0 11 2608 33 25011 10439 4.4 31 7 2 8 28% 9400 96527 17918 69%
c s 10.55 28 308 0 11 2608 33 25011 10439 4.4 31 7 2 8 28% 9401 96144 17918 69%
c e 10.56 28 308 0 11 2608 33 25011 10439 4.4 31 7 2 8 28% 9387 96163 17906 69%
c ^ 10.56 28 308 0 11 2608 33 25011 10439 4.4 31 7 2 8 28% 9387 96163 17906 69%
c - 11.01 28 310 0 12 2730 33 26794 9251 4.4 31 7 2 8 28% 9466 96163 17906 69%
c c 11.13 28 309 0 12 2741 33 26913 9364 4.4 31 7 2 8 28% 9544 95653 17829 69%
c d 11.13 28 309 0 12 2741 33 26913 9235 4.4 31 7 2 8 28% 9272 95653 17758 69%
c
c  seconds   switched     rate        size/glue tier1    binary         remaining
c         MB   reductions   conflicts       size  tier2     irredundant
c           level   restarts     redundant    glue   trail         variables
c
c u 11.19 28 309 0 12 2741 33 26913 8019 4.4 31 7 2 8 28% 9303 95653 17758 69%
c v 11.24 28 309 0 12 2741 33 26913 7093 4.4 31 7 2 8 28% 9306 95653 17758 69%
c w 11.27 28 309 0 12 2741 33 26913 7089 4.4 31 7 2 8 28% 9306 95653 17758 69%
c x 11.36 28 309 0 12 2741 33 26913 7089 4.4 31 7 2 8 28% 9309 94520 17758 69%
c = 11.67 28 309 0 12 2741 33 26913 7089 4.4 31 7 2 8 28% 13395 94520 15715 61%
c d 11.68 28 309 0 12 2741 33 26913 6990 4.4 31 7 2 8 28% 9221 94520 15706 61%
c t 11.70 28 309 0 12 2741 33 26913 6990 4.4 31 7 2 8 28% 9198 94520 15706 61%
c f 11.78 28 309 0 12 2741 33 26913 6990 4.4 31 7 2 8 28% 9206 94488 15713 61%
c c 11.85 28 309 0 12 2741 33 26913 6974 4.4 31 7 2 8 28% 9245 94320 15692 61%
c d 11.85 28 309 0 12 2741 33 26913 6974 4.4 31 7 2 8 28% 9203 94320 15692 61%
c u 11.90 28 309 0 12 2741 33 26913 6406 4.4 31 7 2 8 28% 9211 94320 15692 61%
c v 11.93 28 309 0 12 2741 33 26913 6295 4.4 31 7 2 8 28% 9212 94320 15692 61%
c w 11.96 28 309 0 12 2741 33 26913 6294 4.4 31 7 2 8 28% 9212 94320 15692 61%
c = 12.27 28 309 0 12 2741 33 26913 6294 4.4 31 7 2 8 28% 12934 94308 13831 53%
c d 12.28 28 309 0 12 2741 33 26913 6144 4.4 31 7 2 8 28% 9135 94308 13831 53%
c t 12.29 28 309 0 12 2741 33 26913 6144 4.4 31 7 2 8 28% 9075 94308 13831 53%
c f 12.34 28 309 0 12 2741 33 26913 6144 4.4 31 7 2 8 28% 9101 94207 13852 53%
c - 13.09 28 291 0 13 3066 32 30258 8078 4.3 31 7 2 8 27% 9172 94202 13852 53%
c - 14.48 28 279 0 14 3628 32 33863 10182 4.2 31 7 2 7 29% 9194 94201 13852 53%
c i 15.35 28 270 0 14 3902 31 37175 13084 4.1 31 8 2 7 29% 9244 94197 13851 53%
c
c  seconds   switched     rate         size/glue tier1    binary         remaining
c         MB   reductions   conflicts        size  tier2     irredundant
c           level   restarts      redundant    glue   trail         variables
c
c - 15.45 28 270 0 15 3942 31 37604 11761 4.1 31 8 2 7 29% 9246 94197 13851 53%
c i 16.07 28 267 0 15 4194 31 39380 13397 4.1 32 8 2 7 29% 9264 94197 13850 53%
c o 16.14 28 264 0 15 4217 31 40096 13904 4.1 31 8 2 7 29% 9289 94197 13850 53%
c c 16.58 28 261 0 15 4366 31 41239 14984 4.1 32 8 2 7 29% 9355 93610 13748 53%
c d 16.59 28 261 0 15 4366 31 41239 14539 4.1 32 8 2 7 29% 9159 93604 13748 53%
c d 16.60 28 261 0 15 4366 31 41239 14538 4.1 32 8 2 7 29% 9153 93604 13745 53%
c u 16.66 28 261 0 15 4366 31 41239 12403 4.1 32 8 2 7 29% 9176 93604 13745 53%
c v 16.76 28 261 0 15 4366 31 41239 10769 4.1 32 8 2 7 29% 9186 93604 13745 53%
c w 16.84 28 261 0 15 4366 31 41239 10769 4.1 32 8 2 7 29% 9186 93604 13745 53%
c x 16.94 28 261 0 15 4366 31 41239 10768 4.1 32 8 2 7 29% 9190 77229 13745 53%
c = 17.29 28 261 0 15 4366 31 41239 10768 4.1 32 8 2 7 29% 9748 77229 13466 52%
c d 17.29 28 261 0 15 4366 31 41239 10738 4.1 32 8 2 7 29% 9169 77229 13460 52%
c t 17.31 28 261 0 15 4366 31 41239 10738 4.1 32 8 2 7 29% 9129 77229 13460 52%
c f 17.33 28 261 0 15 4366 31 41239 10738 4.1 32 8 2 7 29% 9136 77196 13468 52%
c c 17.39 28 261 0 15 4366 31 41239 10731 4.1 32 8 2 7 29% 9144 77166 13465 52%
c d 17.39 28 261 0 15 4366 31 41239 10731 4.1 32 8 2 7 29% 9138 77166 13465 52%
c u 17.44 28 261 0 15 4366 31 41239 9969 4.1 32 8 2 7 29% 9145 77166 13465 52%
c v 17.49 28 261 0 15 4366 31 41239 9723 4.1 32 8 2 7 29% 9147 77166 13465 52%
c w 17.68 28 261 0 15 4366 31 41239 9705 4.1 32 8 2 7 29% 9147 77166 13465 52%
c x 17.78 28 261 0 15 4366 31 41239 9703 4.1 32 8 2 7 29% 9148 67826 13465 52%
c
c  seconds   switched     rate        size/glue tier1    binary         remaining
c         MB   reductions   conflicts       size  tier2     irredundant
c           level   restarts     redundant    glue   trail         variables
c
c = 18.13 28 261 0 15 4366 31 41239 9703 4.1 32 8 2 7 29% 9264 67826 13407 52%
c d 18.14 28 261 0 15 4366 31 41239 9678 4.1 32 8 2 7 29% 9142 67826 13404 52%
c t 18.16 28 261 0 15 4366 31 41239 9678 4.1 32 8 2 7 29% 9138 67826 13404 52%
c - 18.20 28 260 0 16 4379 31 41479 8472 4.1 32 8 2 7 29% 9150 67826 13404 52%
c - 19.03 28 253 0 17 4767 30 45479 10507 4.0 32 8 2 7 29% 9217 67825 13404 52%
c i 19.72 28 247 0 17 5094 30 48802 13424 4.0 31 8 2 7 29% 9269 67822 13403 52%
c - 19.96 28 247 0 18 5197 30 49603 12459 4.0 32 8 2 7 29% 9272 67822 13403 52%
c s 20.36 28 241 0 18 5399 29 52114 14634 3.9 31 8 2 7 29% 9311 65566 13403 52%
c e 20.44 28 241 0 18 5399 29 52114 14634 3.9 31 8 2 7 29% 8862 66047 12998 50%
c 2 20.44 28 241 0 18 5399 29 52114 14634 3.9 31 8 2 7 29% 8861 66047 12998 50%
c s 20.45 28 241 0 18 5399 29 52114 14634 3.9 31 8 2 7 29% 8865 65610 12998 50%
c e 20.46 28 241 0 18 5399 29 52114 14634 3.9 31 8 2 7 29% 8845 65636 12983 50%
c ^ 20.46 28 241 0 18 5399 29 52114 14634 3.9 31 8 2 7 29% 8845 65636 12983 50%
c i 20.80 28 238 0 18 5563 29 53748 14691 3.9 31 8 2 7 29% 8887 65635 12982 50%
c - 20.81 28 239 0 19 5564 29 53846 12961 3.9 31 8 2 7 29% 8886 65626 12982 50%
c i 21.31 28 234 0 19 5792 29 56046 14951 3.9 31 8 2 7 29% 8917 65624 12981 50%
c i 21.38 28 233 0 19 5827 29 56347 15225 3.9 31 8 2 7 29% 8919 65623 12980 50%
c i 21.74 28 231 0 19 6009 28 57773 16542 3.8 30 8 2 7 29% 8935 65621 12979 50%
c i 21.74 28 230 0 19 6013 28 57797 16555 3.8 30 8 2 7 29% 8936 65621 12978 50%
c - 21.80 28 230 0 20 6027 28 58204 14563 3.8 30 8 2 7 29% 8936 65621 12978 50%
c
c  seconds   switched     rate         size/glue tier1    binary         remaining
c         MB   reductions   conflicts        size  tier2     irredundant
c           level   restarts      redundant    glue   trail         variables
c
c i 21.93 28 230 0 20 6081 28 58706 14985 3.8 30 8 2 7 29% 8946 65621 12976 50%
c d 21.96 28 229 0 20 6094 28 58905 14950 3.8 30 8 2 7 29% 8878 65562 12933 50%
c d 21.96 28 229 0 20 6094 28 58905 14948 3.8 30 8 2 7 29% 8864 65558 12926 50%
c u 22.03 28 229 0 20 6094 28 58905 12441 3.8 30 8 2 7 29% 8905 65558 12924 50%
c v 22.12 28 229 0 20 6094 28 58905 10981 3.8 30 8 2 7 29% 8903 65558 12924 50%
c w 22.18 28 229 0 20 6094 28 58905 10972 3.8 30 8 2 7 29% 8903 65558 12924 50%
c x 22.25 28 229 0 20 6094 28 58905 10970 3.8 30 8 2 7 29% 8910 65351 12924 50%
c = 22.60 28 229 0 20 6094 28 58905 10970 3.8 30 8 2 7 29% 9324 65292 12710 49%
c d 22.60 28 229 0 20 6094 28 58905 10821 3.8 30 8 2 7 29% 8856 65291 12701 49%
c t 22.62 28 229 0 20 6094 28 58905 10821 3.8 30 8 2 7 29% 8812 65291 12701 49%
c f 22.65 28 229 0 20 6094 28 58905 10821 3.8 30 8 2 7 29% 8826 65140 12722 49%
c c 22.70 28 229 0 20 6094 28 58905 10768 3.8 30 8 2 7 29% 8819 65047 12709 49%
c d 22.70 28 229 0 20 6094 28 58905 10768 3.8 30 8 2 7 29% 8793 65047 12709 49%
c u 22.76 28 229 0 20 6094 28 58905 10148 3.8 30 8 2 7 29% 8797 65047 12708 49%
c v 22.81 28 229 0 20 6094 28 58905 9930 3.8 30 8 2 7 29% 8797 65047 12708 49%
c w 22.87 28 229 0 20 6094 28 58905 9907 3.8 30 8 2 7 29% 8797 65047 12708 49%
c = 23.26 28 229 0 20 6094 28 58905 9907 3.8 30 8 2 7 29% 9027 64943 12583 49%
c d 23.26 28 229 0 20 6094 28 58905 9797 3.8 30 8 2 7 29% 8748 64943 12581 49%
c t 23.28 28 229 0 20 6094 28 58905 9797 3.8 30 8 2 7 29% 8699 64943 12581 49%
c f 23.29 28 229 0 20 6094 28 58905 9797 3.8 30 8 2 7 29% 8706 64895 12588 49%
c
c  seconds   switched     rate        size/glue tier1    binary         remaining
c         MB   reductions   conflicts       size  tier2     irredundant
c           level   restarts     redundant    glue   trail         variables
c
c i 23.30 28 229 0 20 6094 28 58905 9797 3.8 30 8 2 7 29% 8706 64895 12588 49%
c - 23.88 28 220 0 21 6388 27 62676 11477 3.7 29 8 2 7 29% 8751 64894 12588 49%
c i 24.15 28 214 0 21 6517 26 65241 13809 3.6 29 8 2 7 29% 8778 64894 12587 49%
c i 24.21 28 213 0 21 6558 26 66175 14628 3.6 29 8 2 7 29% 8786 64894 12586 49%
c - 24.32 28 211 0 22 6625 26 67260 13611 3.6 28 8 2 7 29% 8782 64894 12586 49%
c i 24.35 28 210 0 22 6655 26 67703 13959 3.6 28 8 2 7 29% 8790 64894 12585 49%
c i 24.40 28 208 0 22 6689 25 68355 14532 3.5 28 8 2 7 29% 8796 64894 12584 49%
c o 24.50 28 204 0 22 6829 25 70126 16119 3.5 28 8 2 7 29% 8807 64894 12584 49%
c - 24.59 28 199 0 23 6940 24 71950 15267 3.5 27 8 2 7 28% 8843 64894 12584 49%
c i 24.59 28 198 0 23 6943 24 72222 15449 3.5 27 8 2 7 28% 8856 64894 12582 49%
c i 24.63 28 195 0 23 6983 24 73366 16413 3.5 27 8 2 7 28% 8875 64894 12581 49%
c i 24.64 28 195 0 23 6987 24 73533 16566 3.5 27 8 2 7 28% 8879 64894 12580 49%
c i 24.65 28 194 0 23 7004 24 73872 16847 3.4 27 8 2 7 27% 8887 64894 12579 49%
c i 24.65 28 194 0 23 7009 24 73962 16925 3.4 27 8 2 7 27% 8891 64894 12578 49%
c i 24.67 28 192 0 23 7010 23 74666 17549 3.4 27 8 2 7 27% 8903 64894 12577 49%
c i 24.68 28 191 0 23 7018 23 74955 17761 3.4 27 8 2 7 27% 8909 64894 12576 49%
c i 24.68 28 190 0 23 7018 23 75058 17844 3.4 27 8 2 7 27% 8913 64894 12574 49%
c i 24.68 28 190 0 23 7018 23 75155 17898 3.4 27 8 2 7 27% 8920 64894 12561 49%
c i 24.68 28 190 0 23 7018 23 75156 17898 3.4 27 8 2 7 27% 8920 64894 12560 49%
c i 24.68 28 190 0 23 7018 23 75157 17898 3.4 27 8 2 7 27% 8920 64894 12557 48%
c
c  seconds   switched     rate         size/glue tier1    binary         remaining
c         MB   reductions   conflicts        size  tier2     irredundant
c           level   restarts      redundant    glue   trail         variables
c
c } 24.68 28 190 0 23 7018 23 75159 17898 3.4 27 8 2 7 27% 8920 64894 12553 48%
c 0 24.68 28 190 0 23 7018 23 75159 17898 3.4 27 8 2 7 27% 8920 64894 12553 48%
c
c ---- [ result ] ------------------------------------------------------------
c
s UNSATISFIABLE
c
c ---- [ profiling ] ---------------------------------------------------------
c
c          16.89   68.44 %  search
c          16.89   68.44 %  focused
c           7.27   29.46 %  simplify
c           7.04   28.52 %  probe
c           2.95   11.94 %  sweep
c           2.37    9.61 %  vivify
c           0.62    2.52 %  factor
c           0.51    2.08 %  congruence
c           0.48    1.96 %  eliminate
c           0.44    1.77 %  preprocess
c           0.41    1.67 %  substitute
c           0.18    0.72 %  fastel
c           0.14    0.56 %  reduce
c           0.11    0.46 %  transitive
c           0.09    0.37 %  subsume
c           0.06    0.24 %  backbone
c           0.05    0.20 %  lucky
c           0.03    0.13 %  parse
c =============================================
c          24.68  100.00 %  total
c
c ---- [ statistics ] --------------------------------------------------------
c
c chronological:                         3403                5 %  conflicts
c conflicts:                            75159             3044.94 per second
c congruent:                              261                1 %  variables
c decisions:                          1768227               23.53 per conflict
c eliminated:                           11783               46 %  variables
c factored:                              5648               22 %  variables
c fast_eliminated:                       9182               78 %  eliminated
c fast_strengthened:                      177               38 %  per strengthened
c fast_subsumed:                          139                2 %  per subsumed
c iterations:                              25                0 %  variables
c propagations:                      77297682          3131585    per second
c reductions:                              23             3268    interval
c reordered:                                4            18790    interval
c restarts:                              7018               11    interval
c strengthened:                           464                0 %  checks
c substituted:                           7139               28 %  variables
c subsumed:                              8665                0 %  checks
c switched:                                 0                0    interval
c vivified:                             48603               18 %  checks
c
c ---- [ glue usage ] --------------------------------------------------------
c
c focused glue 2   used 35169 clauses 26.15% accumulated 71.30% tier1
c focused glue 3   used 10813 clauses  8.04% accumulated 79.34%
c focused glue 4-5 used 11081 clauses  8.24% accumulated 87.58%
c focused glue 6   used  3088 clauses  2.30% accumulated 89.87%
c focused glue 7   used  2347 clauses  1.75% accumulated 91.62% tier2
c
c ---- [ resources ] ---------------------------------------------------------
c
c maximum-resident-set-size:         29073408 bytes         28 MB
c process-time:                            25s              24.68 seconds
c
c ---- [ shutting down ] -----------------------------------------------------
c
c exit 20
